(set-logic ALL)
(declare-const BAV1 Bool)
(declare-const BAV2 Bool)
(declare-const BAV3 Bool)
(declare-const GEN4 Int)
(declare-const GEN3 Int)
(declare-const GEN2 Int)
(declare-const GEN1 Int)
(declare-fun T4_180 () (_ BitVec 32))
(assert (and (= (bvmul T4_180 (_ bv1056 32)) (_ bv0 32)) (not (= (bvmul T4_180 (_ bv1408 32)) (_ bv0 32)))))
(assert (= BAV1 (and (= (bvmul T4_180 (_ bv1056 32)) (_ bv0 32)) (not (= (bvmul T4_180 (_ bv1408 32)) (_ bv0 32))))))
(assert (= BAV2 (= (bvmul T4_180 (_ bv1056 32)) (_ bv0 32))))
(assert (= BAV3 (= (bvmul T4_180 (_ bv1408 32)) (_ bv0 32))))
(check-sat)
(get-model)